Name: Ing0304-2
Courses: 94
Rooms: 18
Days: 5
Periods_per_day: 5
Curricula: 78
Min_Max_Daily_Lectures: 2 4
UnavailabilityConstraints: 463
RoomConstraints: 129

COURSES:
c0006 t000 3 3 136 0
c0011 t001 3 3 16 0
c0018 t002 3 3 27 0
c0026 t003 3 3 21 0
c0027 t004 3 3 20 0
c0028 t005 3 3 20 0
c0041 t006 5 4 155 1
c0046 t007 3 3 140 0
c0049 t008 3 3 86 0
c0051 t009 3 3 140 0
c0059 t010 3 3 140 0
c0064 t011 3 3 86 0
c0065 t012 3 3 93 0
c0073 t013 3 3 96 0
c0085 t014 3 3 54 0
c0091 t015 3 3 16 0
c0093 t016 5 4 100 0
c0097 t017 3 3 85 0
c0099 t018 3 3 101 0
c0101 t019 2 2 165 0
c101e t019 1 1 85 0
c200e t019 1 1 80 0
c0105 t020 3 3 201 0
c0109 t021 3 3 85 0
c0128 t022 3 3 131 0
c0142 t023 3 2 131 1
c0154 t024 3 3 135 0
c0176 t025 5 4 133 1
c0180 t000 3 3 165 0
c0184 t026 3 2 139 0
c0185 t027 3 3 254 0
c0189 t028 3 3 80 0
c0199 t029 3 3 80 0
c0202 t030 3 3 86 0
c0209 t031 5 4 120 0
c0212 t032 3 3 136 0
c0216 t033 3 3 136 0
c0220 t034 3 3 101 0
c0228 t035 3 3 100 0
c0231 t036 3 3 59 0
c0243 t033 3 3 65 0
c0247 t037 3 3 127 0
c0261 t038 3 2 241 1
c0281 t039 3 3 40 0
c0294 t034 3 2 43 0
c0324 t040 3 3 72 0
c0412 t041 3 3 30 0
c0420 t042 3 3 71 0
c0427 t043 3 3 26 0
c0429 t044 3 3 203 0
c0433 t045 3 3 40 0
c0439 t040 3 3 38 0
c0440 t046 3 3 68 0
c0442 t047 3 3 8 0
c0446 t040 3 2 1 1
c0450 t026 3 3 16 0
c0452 t048 3 3 8 0
c0462 t040 3 2 4 1
c0463 t040 3 2 4 0
c0474 t049 3 3 86 0
c0485 t008 3 2 3 1
c0489 t040 3 2 2 0
c0495 t050 3 3 30 0
c0533 t051 3 2 3 1
c0536 t052 3 2 2 0
c0600 t038 3 3 9 0
c0718 t053 3 2 1 1
c0742 t054 3 3 71 0
c0763 t055 5 4 71 0
c0767 t045 3 3 85 0
c0792 t056 3 3 12 0
c0793 t040 3 3 4 0
c0803 t040 3 2 2 0
c0806 t057 3 2 1 1
c0816 t014 3 3 6 0
c0820 t015 3 3 8 0
c0830 t058 3 3 12 0
c0881 t059 3 3 123 0
c0896 t060 3 3 135 0
c0935 t061 5 5 100 0
c0943 t062 3 3 86 0
c0306 t063 5 4 40 1
c0388 t064 5 4 87 0
c0951 t065 7 1 13 1
c0949 t066 7 1 65 1
c0961 t067 7 1 15 1
c0959 t068 7 1 70 1
c0957 t069 7 1 50 1
c0965 t070 7 1 45 1
c0519 t071 5 5 93 0
c0513 t072 5 4 52 0
c0815 t073 5 4 4 0
c0823 t074 5 4 41 0
c0821 t075 5 4 42 0

ROOMS:
r25 40 0
r36 42 0
r37 42 0
r38 48 0
r31 50 0
r27 90 0
rB 216 1
rD 216 1
rE 216 1
rF 216 1
rH 216 0
rA 312 0
rL 336 0
r50 60 0
r51 110 0
r52 90 0
rDS1 90 2
rDS2 90 2

CURRICULA:
q000 1 c0176 
q001 3 c0006 c0216 c0212 
q002 4 c0006 c0216 c0212 c0085 
q003 5 c0011 c0018 c0026 c0027 c0028 
q004 4 c0231 c0220 c0427 c0091 
q005 6 c0792 c0793 c0830 c0026 c0027 c0028 
q006 6 c0792 c0815 c0816 c0427 c0820 c0830 
q007 4 c0792 c0830 c0427 c0820 
q008 3 c0803 c0533 c0806 
q009 2 c0821 c0823 
q010 3 c0154 c0896 c0959 
q011 3 c0154 c0896 c0961 
q012 3 c0154 c0896 c0957 
q013 4 c0128 c0142 c0881 c0949 
q014 4 c0128 c0142 c0881 c0951 
q015 4 c0128 c0142 c0881 c0965 
q016 2 c0128 c0142 
q017 1 c0209 
q018 4 c0212 c0006 c0216 c0228 
q019 4 c0220 c0231 c0767 c0085 
q020 4 c0220 c0243 c0247 c0767 
q021 3 c0412 c0439 c0420 
q022 3 c0412 c0439 c0243 
q023 3 c0420 c0433 c0231 
q024 3 c0420 c0433 c0439 
q025 3 c0420 c0433 c0440 
q026 3 c0420 c0433 c0442 
q027 2 c0420 c0433 
q028 5 c0294 c0816 c0247 c0427 c0429 
q029 7 c0294 c0429 c0085 c0816 c0427 c0446 c0718 
q030 1 c0041 
q031 4 c0046 c0051 c0059 c0065 
q032 4 c0049 c0064 c0742 c0943 
q033 4 c0049 c0064 c0073 c0943 
q034 4 c0049 c0064 c0261 c0943 
q035 5 c0474 c0281 c0073 c0261 c0742 
q036 5 c0474 c0281 c0261 c0495 c0742 
q037 4 c0474 c0281 c0073 c0742 
q038 2 c0485 c0489 
q039 2 c0485 c0600 
q040 1 c0485 
q042 5 c0180 c0189 c0199 c0101 c200e 
q043 4 c0184 c0185 c0105 c0202 
q044 4 c0184 c0185 c0105 c0018 
q045 4 c0184 c0185 c0105 c0429 
q047 3 c0046 c0051 c0059 
q048 4 c0184 c0185 c0261 c0202 
q049 4 c0184 c0185 c0261 c0474 
q050 4 c0184 c0185 c0261 c0281 
q051 5 c0450 c0065 c0600 c0474 c0202 
q052 6 c0450 c0065 c0600 c0474 c0281 c0202 
q053 5 c0450 c0452 c0429 c0202 c0261 
q054 5 c0450 c0452 c0018 c0202 c0261 
q055 4 c0462 c0463 c0073 c0495 
q056 4 c0462 c0463 c0489 c0474 
q057 3 c0462 c0463 c0099 
q058 5 c0462 c0463 c0018 c0803 c0026 
q059 1 c0093 
q060 5 c0180 c0097 c0101 c101e c0109 
q061 3 c0099 c0105 c0935 
q062 2 c0513 c0763 
q063 2 c0513 c0429 
q064 1 c0519 
q065 2 c0519 c0533 
q066 2 c0519 c0536 
q067 3 c0247 c0429 c0440 
q068 4 c0294 c0306 c0821 c0823 
q069 3 c0429 c0306 c0823 
q070 4 c0420 c0294 c0247 c0821 
q071 2 c0324 c0073 
q072 4 c0324 c0474 c0261 c0073 
q073 4 c0324 c0474 c0261 c0495 
q074 2 c0261 c0185 
q075 3 c0261 c0185 c0429 
q077 3 c0261 c0185 c0073 
q078 2 c0388 c0519 
q079 3 c0388 c0763 c0519 
q080 3 c0388 c0429 c0519 

UNAVAILABILITY_CONSTRAINTS:
c0006 4 0 
c0006 4 1 
c0006 4 2 
c0006 4 3 
c0006 4 4 
c0011 1 0 
c0011 1 1 
c0011 1 2 
c0011 1 3 
c0011 1 4 
c0011 4 3 
c0011 4 4 
c0018 0 0 
c0018 0 1 
c0018 0 2 
c0018 0 3 
c0018 0 4 
c0018 4 2 
c0018 4 3 
c0018 4 4 
c0026 0 2 
c0026 1 2 
c0026 2 2 
c0026 3 2 
c0026 4 2 
c0027 0 0 
c0027 0 1 
c0027 3 0 
c0027 3 1 
c0027 3 2 
c0027 3 3 
c0027 3 4 
c0027 4 0 
c0027 4 1 
c0027 4 2 
c0027 4 3 
c0027 4 4 
c0028 0 0 
c0028 0 1 
c0028 0 2 
c0028 0 3 
c0028 0 4 
c0028 4 2 
c0028 4 3 
c0028 4 4 
c0049 0 0 
c0049 0 1 
c0049 0 2 
c0049 0 3 
c0049 0 4 
c0049 4 2 
c0049 4 3 
c0049 4 4 
c0051 2 2 
c0051 2 3 
c0051 2 4 
c0051 3 2 
c0051 3 3 
c0051 3 4 
c0051 4 3 
c0051 4 4 
c0059 2 2 
c0059 2 3 
c0059 2 4 
c0059 4 0 
c0059 4 1 
c0059 4 2 
c0059 4 3 
c0059 4 4 
c0064 4 0 
c0064 4 1 
c0064 4 2 
c0064 4 3 
c0064 4 4 
c0065 0 2 
c0065 0 3 
c0065 0 4 
c0065 2 2 
c0065 2 3 
c0065 2 4 
c0073 0 0 
c0073 0 1 
c0073 0 2 
c0073 0 3 
c0073 0 4 
c0073 4 0 
c0073 4 1 
c0073 4 2 
c0073 4 3 
c0073 4 4 
c0085 0 0 
c0085 0 1 
c0085 4 0 
c0085 4 1 
c0085 4 2 
c0085 4 3 
c0085 4 4 
c0097 0 0 
c0097 0 1 
c0097 0 2 
c0097 0 3 
c0097 0 4 
c0097 1 0 
c0097 1 1 
c0097 4 0 
c0097 4 1 
c0097 4 2 
c0097 4 3 
c0097 4 4 
c0099 2 2 
c0099 2 3 
c0099 2 4 
c0099 3 2 
c0099 3 3 
c0099 3 4 
c0099 4 3 
c0099 4 4 
c0101 3 0 
c0101 3 1 
c0101 3 2 
c0101 3 3 
c0101 3 4 
c0101 4 0 
c0101 4 1 
c0101 4 2 
c0101 4 3 
c0101 4 4 
c0105 2 2 
c0105 2 3 
c0105 2 4 
c0105 3 0 
c0105 3 1 
c0105 3 2 
c0105 3 3 
c0105 3 4 
c0105 4 0 
c0105 4 1 
c0105 4 2 
c0105 4 3 
c0105 4 4 
c0128 0 2 
c0128 1 2 
c0128 1 4 
c0128 2 2 
c0128 3 2 
c0128 4 2 
c0142 1 4 
c0180 4 0 
c0180 4 1 
c0180 4 2 
c0180 4 3 
c0180 4 4 
c0184 2 0 
c0184 2 1 
c0184 2 2 
c0184 2 3 
c0184 2 4 
c0184 4 0 
c0184 4 1 
c0184 4 2 
c0184 4 3 
c0184 4 4 
c0185 2 0 
c0185 2 1 
c0185 4 0 
c0185 4 1 
c0185 4 2 
c0185 4 3 
c0185 4 4 
c0189 0 0 
c0189 0 1 
c0189 0 2 
c0189 0 3 
c0189 0 4 
c0189 4 0 
c0189 4 1 
c0189 4 2 
c0189 4 3 
c0189 4 4 
c0199 2 3 
c0199 2 4 
c0199 3 0 
c0199 3 1 
c0199 3 2 
c0199 3 3 
c0199 3 4 
c0199 4 0 
c0199 4 1 
c0199 4 2 
c0199 4 3 
c0199 4 4 
c0202 3 0 
c0202 3 1 
c0202 3 2 
c0202 3 3 
c0202 3 4 
c0202 4 0 
c0202 4 1 
c0202 4 2 
c0202 4 3 
c0202 4 4 
c0212 0 2 
c0212 1 2 
c0212 2 2 
c0212 3 2 
c0212 4 2 
c0220 4 2 
c0220 4 4 
c0228 0 0 
c0228 1 0 
c0228 2 0 
c0228 2 4 
c0228 3 0 
c0228 3 4 
c0228 4 0 
c0228 4 4 
c0231 0 0 
c0231 2 0 
c0231 4 0 
c0261 2 3 
c0261 2 4 
c0261 3 0 
c0261 3 1 
c0261 3 2 
c0261 3 3 
c0261 3 4 
c0261 4 4 
c0281 0 4 
c0281 1 2 
c0281 1 3 
c0281 1 4 
c0281 2 4 
c0281 3 4 
c0281 4 0 
c0281 4 1 
c0281 4 2 
c0281 4 3 
c0281 4 4 
c0324 0 0 
c0324 0 1 
c0324 0 2 
c0324 3 0 
c0324 3 1 
c0324 3 2 
c0324 3 3 
c0324 3 4 
c0324 4 0 
c0324 4 1 
c0324 4 2 
c0324 4 3 
c0324 4 4 
c0420 0 0 
c0420 0 1 
c0420 0 2 
c0420 0 3 
c0420 0 4 
c0420 1 0 
c0420 1 1 
c0420 1 2 
c0427 1 4 
c0427 2 4 
c0427 3 4 
c0427 4 0 
c0427 4 1 
c0427 4 2 
c0427 4 3 
c0427 4 4 
c0429 1 0 
c0429 1 1 
c0429 1 2 
c0429 2 2 
c0429 3 2 
c0429 4 2 
c0429 4 3 
c0429 4 4 
c0433 0 0 
c0433 0 1 
c0433 4 0 
c0433 4 1 
c0433 4 2 
c0433 4 3 
c0433 4 4 
c0440 0 0 
c0440 0 1 
c0440 0 2 
c0440 0 3 
c0440 0 4 
c0440 1 0 
c0440 1 1 
c0440 1 2 
c0442 0 0 
c0442 0 1 
c0442 0 2 
c0442 0 3 
c0442 0 4 
c0442 4 2 
c0442 4 3 
c0442 4 4 
c0450 2 0 
c0450 2 1 
c0450 2 2 
c0450 2 3 
c0450 2 4 
c0450 4 0 
c0450 4 1 
c0450 4 2 
c0450 4 3 
c0450 4 4 
c0452 0 0 
c0452 0 1 
c0452 0 2 
c0452 0 3 
c0452 0 4 
c0452 1 0 
c0452 1 2 
c0452 2 2 
c0452 2 3 
c0452 2 4 
c0452 3 2 
c0452 3 3 
c0452 3 4 
c0452 4 0 
c0452 4 1 
c0452 4 2 
c0452 4 3 
c0452 4 4 
c0474 0 0 
c0474 0 1 
c0474 0 2 
c0474 0 3 
c0474 0 4 
c0474 1 0 
c0474 1 1 
c0474 1 2 
c0485 0 0 
c0485 0 1 
c0485 0 2 
c0485 0 3 
c0485 0 4 
c0485 4 2 
c0485 4 3 
c0485 4 4 
c0495 0 0 
c0495 0 1 
c0495 4 4 
c0742 0 0 
c0742 1 0 
c0742 2 0 
c0742 4 0 
c0742 4 1 
c0742 4 2 
c0742 4 3 
c0742 4 4 
c0767 0 0 
c0767 0 1 
c0767 4 0 
c0767 4 1 
c0767 4 2 
c0767 4 3 
c0767 4 4 
c0792 0 2 
c0792 1 2 
c0792 2 2 
c0792 3 2 
c0792 4 2 
c0806 0 0 
c0806 0 1 
c0806 0 2 
c0806 0 3 
c0806 1 0 
c0806 1 1 
c0806 1 2 
c0806 1 3 
c0806 2 0 
c0806 2 1 
c0806 2 2 
c0806 2 3 
c0806 3 0 
c0806 3 1 
c0806 3 2 
c0806 3 3 
c0806 4 0 
c0806 4 1 
c0806 4 2 
c0806 4 3 
c0816 0 0 
c0816 0 1 
c0816 0 2 
c0816 0 3 
c0816 0 4 
c0816 1 0 
c0816 1 1 
c0816 1 2 
c0816 1 3 
c0816 1 4 
c0830 0 0 
c0830 0 1 
c0830 0 2 
c0830 0 3 
c0830 0 4 
c0830 4 0 
c0830 4 1 
c0830 4 2 
c0881 0 0 
c0881 0 1 
c0881 0 2 
c0881 1 2 
c0881 1 4 
c0881 3 2 
c0881 4 2 
c0881 4 3 
c0881 4 4 
c0896 3 0 
c0896 3 1 
c0896 3 2 
c0896 3 3 
c0896 3 4 
c0896 4 0 
c0896 4 1 
c0896 4 2 
c0896 4 3 
c0896 4 4 
c0935 0 0 
c0935 4 1 
c0935 4 2 
c0935 4 3 
c0935 4 4 
c0943 0 0 
c0943 0 1 
c0943 0 2 
c0943 0 3 
c0943 0 4 
c0943 4 0 
c0943 4 1 
c0943 4 2 
c0943 4 3 
c0943 4 4 
c0306 0 0 
c0306 0 2 
c0306 0 3 
c0306 2 2 
c0306 2 3 
c0519 0 2 
c0519 1 2 
c0519 2 2 
c0519 3 2 
c0519 4 2 
c0513 0 0 
c0513 0 1 
c0513 0 2 
c0513 1 0 
c0513 2 0 
c0513 3 0 
c0513 4 0 
c0513 4 4 
c0815 0 0 
c0815 0 1 
c0815 0 2 
c0815 0 3 
c0815 0 4 
c0821 4 2 
c0821 4 3 
c0821 4 4 

ROOM_CONSTRAINTS:
c0006 r37
c0006 rH
c0006 r51
c0006 rDS2
c0011 r31
c0011 r50
c0018 rL
c0026 rH
c0027 rDS1
c0028 r36
c0028 r52
c0041 r50
c0051 rH
c0051 r50
c0051 r51
c0059 r27
c0059 r51
c0064 r25
c0065 r37
c0065 r31
c0085 r25
c0085 r50
c0085 r51
c0085 r52
c0093 r25
c0093 rA
c0097 rF
c0101 r31
c101e rA
c0109 r25
c0109 rF
c0109 rL
c0109 rDS2
c0128 r38
c0128 rE
c0128 rF
c0128 rDS2
c0154 rDS1
c0176 r38
c0176 r52
c0180 rF
c0184 r52
c0185 r38
c0185 r51
c0189 r36
c0199 rH
c0202 rE
c0209 r38
c0209 rE
c0209 rA
c0209 r50
c0216 r52
c0228 r36
c0231 r36
c0231 rA
c0231 r51
c0243 r38
c0243 rF
c0243 rH
c0243 rDS2
c0247 r27
c0261 r38
c0261 rB
c0281 r31
c0294 r38
c0294 rDS2
c0412 rD
c0412 rA
c0420 rA
c0420 rDS1
c0433 r27
c0440 rE
c0446 r51
c0450 r38
c0450 rH
c0462 r52
c0463 rB
c0474 r25
c0474 rH
c0474 r52
c0485 r38
c0485 rL
c0489 r38
c0489 r51
c0533 rE
c0600 rE
c0718 rF
c0742 r25
c0742 rE
c0742 rL
c0763 r27
c0763 rF
c0763 r52
c0767 rF
c0767 rA
c0792 rB
c0793 rD
c0806 rE
c0820 rF
c0830 r25
c0881 rL
c0896 rDS2
c0935 r37
c0935 rD
c0943 r36
c0943 rF
c0943 rL
c0943 r52
c0306 r50
c0388 r36
c0388 rA
c0388 rL
c0388 rDS2
c0951 r31
c0949 r37
c0961 r27
c0959 rA
c0957 r27
c0965 rDS1
c0965 rDS2
c0519 rA
c0513 r25
c0823 r37
c0823 r38
c0823 r31
c0823 rA
c0823 rDS1
c0821 r25
c0821 r38

END.
